% MIT License
%
% Copyright (c) 2021 Johan Ludde Wessén
%
% Permission is hereby granted, free of charge, to any person obtaining 
% a copy of this software and associated documentation files (the "Software"),
% to deal in the Software without restriction, including without limitation 
% the rights to use, copy, modify, merge, publish, distribute, sublicense, 
% and/or sell copies of the Software, and to permit persons to whom the 
% Software is furnished to do so, subject to the following conditions:
% 
% The above copyright notice and this permission notice shall be included 
% in all copies or substantial portions of the Software.
%
% THE SOFTWARE IS PROVIDED "AS IS", WITHOUT WARRANTY OF ANY KIND, 
% EXPRESS OR IMPLIED, INCLUDING BUT NOT LIMITED TO THE WARRANTIES OF
% MERCHANTABILITY, FITNESS FOR A PARTICULAR PURPOSE AND
% NONINFRINGEMENT. IN NO EVENT SHALL THE AUTHORS OR COPYRIGHT HOLDERS BE
% LIABLE FOR ANY CLAIM, DAMAGES OR OTHER LIABILITY, WHETHER IN AN ACTION
% OF CONTRACT, TORT OR OTHERWISE, ARISING FROM, OUT OF OR IN CONNECTION
% WITH THE SOFTWARE OR THE USE OR OTHER DEALINGS IN THE SOFTWARE.

%-----------------------------------------------------------------------------%
% Dual Arm Multi Capacity Multi Tool Scheduling / Routing
% Assembly Configuration
% Auto Generated by python script, authored by Johan Ludde Wessen 
%-----------------------------------------------------------------------------%


task_durations = [|30, 22, 29, 26, 32, 33, 29, 29, 22, 24, 25, 60, 53, 45, 53, 51, 54, 53, 54, 55, 50, 51, 35, 26, 28, 38,  5,  5,  5,  6,  4,  6,  7,  6,  7,  7
                  |24, 24, 27, 22, 32, 30, 30, 26, 28, 27, 30, 49, 49, 51, 54, 50, 52, 51, 52, 61, 48, 50, 34, 28, 26, 32,  7,  5,  7,  5,  5,  6,  7,  4,  7,  7
                  |];


TRAY_TASKS = 1..9;
CAMERA_TASKS = 23..26;
OUTPUT_TASKS = { 22 };


empty_gripper_tasks = 27..36;


gripper_pick_tasks_orders = [|1, 12, -1
|2, 13, -1
|3, 14, -1
|4, 15, -1
|5, 16, -1
|10, 21, -1
|11, 22, -1
|];

suction_pick_tasks_orders = [|6, 23, 17, -1
|7, 24, 18, -1
|8, 25, 19, -1
|9, 26, 20, -1
|];

fixture_task_orders = [|12, 27, 17, 32, 13, 28, 18, 33, 10, -1, -1, -1, -1, -1
|14, 29, 19, 34, 15, 30, 20, 35, 16, 31, 21, 36, 11, -1
|];

